Route #1: 1 15 18 45 19 36 33 37 8 1
Route #2: 1 24 44 32 6 2 7 23 1
Route #3: 1 42 3 11 34 31 22 30 35 1
Route #4: 1 13 20 26 39 38 4 41 1
Route #5: 1 46 10 12 5 14 47 43 25 29 1
Route #6: 1 28 16 9 40 27 21 1
Route #7: 1 17 48 1
cost 1225.0311985009803
